id: 1154
name: neos-476283
group: miplib2010
method: 2

Gurobi 7.0.2 (linux64, Matlab) logging started Tue Mar 27 05:44:15 2018


Gurobi 7.0.2 (linux64) logging started Tue Mar 27 05:44:15 2018

Optimize a model with 10015 rows, 11915 columns and 3945693 nonzeros
Coefficient statistics:
  Matrix range     [2e-04, 1e+04]
  Objective range  [1e+00, 1e+00]
  Bounds range     [1e+00, 1e+00]
  RHS range        [6e-02, 2e+03]
Presolve removed 5703 rows and 5387 columns
Presolve time: 1.50s
Presolved: 4312 rows, 6528 columns, 3924503 nonzeros

Ordering time: 0.02s

Barrier statistics:
 AA' NZ     : 7.266e+06
 Factor NZ  : 8.668e+06 (roughly 70 MBytes of memory)
 Factor Ops : 2.322e+10 (roughly 1 second per iteration)
 Threads    : 4

                  Objective                Residual
Iter       Primal          Dual         Primal    Dual     Compl     Time
   0   8.21835041e+05 -2.82740880e+01  1.86e+06 0.00e+00  1.22e+02     5s
   1   1.46094915e+05 -6.09396675e+03  9.47e+04 7.16e-03  1.25e+01     6s
   2   2.41453422e+04 -2.50940648e+03  1.57e+04 1.65e-03  2.20e+00     8s
   3   1.17354363e+03 -1.23889482e+03  6.62e+02 6.35e-05  1.72e-01     9s
   4   5.38368321e+02  3.34584639e+01  8.75e+01 3.35e-06  3.26e-02    10s
   5   4.88139590e+02  2.12829695e+02  4.82e+01 1.54e-06  1.77e-02    11s
   6   4.56097471e+02  3.30453444e+02  3.01e+01 5.15e-07  8.11e-03    13s
   7   4.33456930e+02  3.77614489e+02  1.58e+01 1.63e-07  3.61e-03    14s
   8   4.11841473e+02  4.03462664e+02  2.52e+00 3.33e-16  5.40e-04    15s
   9   4.06805664e+02  4.05969984e+02  1.40e-01 3.33e-16  5.29e-05    16s
  10   4.06296870e+02  4.06202996e+02  7.41e-03 2.22e-16  5.88e-06    18s
  11   4.06246703e+02  4.06242939e+02  2.26e-05 2.22e-16  2.34e-07    19s
  12   4.06244736e+02  4.06244696e+02  8.54e-09 8.29e-16  2.50e-09    20s
  13   4.06244708e+02  4.06244708e+02  4.31e-10 6.75e-13  1.71e-12    21s

Barrier solved model in 13 iterations and 21.25 seconds
Optimal objective 4.06244708e+02

Crossover log...

     130 DPushes remaining with DInf 0.0000000e+00                21s
       0 DPushes remaining with DInf 3.9207678e-14                21s

      48 PPushes remaining with PInf 0.0000000e+00                21s
       0 PPushes remaining with PInf 0.0000000e+00                21s

  Push phase complete: Pinf 0.0000000e+00, Dinf 1.2069119e+01     21s

Iteration    Objective       Primal Inf.    Dual Inf.      Time
     168    4.0624471e+02   0.000000e+00   1.206912e+01     21s
     200    4.0624471e+02   0.000000e+00   0.000000e+00     22s

Solved in 200 iterations and 21.52 seconds
Optimal objective  4.062447078e+02
status: OPTIMAL
